Graphene
&INPUTPH
    prefix              =    'pwscf'
    outdir              =    '.'
    verbosity           =    'high'
    reduce_io           =    .false.
    low_directory_check =    .false.
    recover             =    .false.
    only_init           =    .false.
    max_seconds         =    1.d+7
    amass(1)            =    12.0107
    niter_ph            =    100
    tr2_ph              =    1.d-12
    alpha_mix(1)        =    0.7
    nmix_ph             =    4
    fildyn              =    'matdyn'
    fildrho             =    'rho.ph.out'
    fildvscf            =    'vscf.ph.out'
    epsil               =    .false.
    lrpa                =    .false.
    lnoloc              =    .false.
    trans               =    .true.
! Raman options
    lraman              =   .false.
    eth_rps             =   1.0d-9
    eth_ns              =   1.0d-12
    dek                 =   1.0d-3

    qplot               =   .false.
    q2d                 =   .false.
    q_in_band_form      =   .false.
    electron_phonon     =   'simple'
    zeu                 =   .false.
    zue                 =   .false.
    elop                =   .false.
    fpol                =   .false.
    ldisp               =   .false.
    nogg                =   .false.
    ldiag               =   .false.
    lqdir               =   .false.
    search_sym          =   .true.
    nq1 = 1, nq2 = 1, nq3 = 1
    nk1 = 1, nk2 = 1, nk3 = 1
    k1 = 0, k2 = 0, k3 = 0
    
    
/


qPointsSpecs
 63
  0.00000000  0.00000000  0.00000000    0.01587302
  0.03333333  0.01666667  0.00000000    0.01587302
  0.06666667  0.03333333  0.00000000    0.01587302
  0.10000000  0.05000000  0.00000000    0.01587302
  0.13333333  0.06666667  0.00000000    0.01587302
  0.16666667  0.08333333  0.00000000    0.01587302
  0.20000000  0.10000000  0.00000000    0.01587302
  0.23333333  0.11666667  0.00000000    0.01587302
  0.26666667  0.13333333  0.00000000    0.01587302
  0.30000000  0.15000000  0.00000000    0.01587302
  0.33333333  0.16666667  0.00000000    0.01587302
  0.36666667  0.18333333  0.00000000    0.01587302
  0.40000000  0.20000000  0.00000000    0.01587302
  0.43333333  0.21666667  0.00000000    0.01587302
  0.46666667  0.23333333  0.00000000    0.01587302
  0.50000000  0.25000000  0.00000000    0.01587302
  0.53333333  0.26666667  0.00000000    0.01587302
  0.56666667  0.28333333  0.00000000    0.01587302
  0.60000000  0.30000000  0.00000000    0.01587302
  0.63333333  0.31666667  0.00000000    0.01587302
  0.66666667  0.33333333  0.00000000    0.01587302
  0.66666667  0.33333333  0.00000000    0.01587302
  0.65833333  0.31666667  0.00000000    0.01587302
  0.65000000  0.30000000  0.00000000    0.01587302
  0.64166667  0.28333333  0.00000000    0.01587302
  0.63333333  0.26666667  0.00000000    0.01587302
  0.62500000  0.25000000  0.00000000    0.01587302
  0.61666667  0.23333333  0.00000000    0.01587302
  0.60833333  0.21666667  0.00000000    0.01587302
  0.60000000  0.20000000  0.00000000    0.01587302
  0.59166667  0.18333333  0.00000000    0.01587302
  0.58333333  0.16666667  0.00000000    0.01587302
  0.57500000  0.15000000  0.00000000    0.01587302
  0.56666667  0.13333333  0.00000000    0.01587302
  0.55833333  0.11666667  0.00000000    0.01587302
  0.55000000  0.10000000  0.00000000    0.01587302
  0.54166667  0.08333333  0.00000000    0.01587302
  0.53333333  0.06666667  0.00000000    0.01587302
  0.52500000  0.05000000  0.00000000    0.01587302
  0.51666667  0.03333333  0.00000000    0.01587302
  0.50833333  0.01666667  0.00000000    0.01587302
  0.50000000  0.00000000  0.00000000    0.01587302
  0.50000000  0.00000000  0.00000000    0.01587302
  0.47500000  0.00000000  0.00000000    0.01587302
  0.45000000  0.00000000  0.00000000    0.01587302
  0.42500000  0.00000000  0.00000000    0.01587302
  0.40000000  0.00000000  0.00000000    0.01587302
  0.37500000  0.00000000  0.00000000    0.01587302
  0.35000000  0.00000000  0.00000000    0.01587302
  0.32500000  0.00000000  0.00000000    0.01587302
  0.30000000  0.00000000  0.00000000    0.01587302
  0.27500000  0.00000000  0.00000000    0.01587302
  0.25000000  0.00000000  0.00000000    0.01587302
  0.22500000  0.00000000  0.00000000    0.01587302
  0.20000000  0.00000000  0.00000000    0.01587302
  0.17500000  0.00000000  0.00000000    0.01587302
  0.15000000  0.00000000  0.00000000    0.01587302
  0.12500000  0.00000000  0.00000000    0.01587302
  0.10000000  0.00000000  0.00000000    0.01587302
  0.07500000  0.00000000  0.00000000    0.01587302
  0.05000000  0.00000000  0.00000000    0.01587302
  0.02500000  0.00000000  0.00000000    0.01587302
  0.00000000  0.00000000  0.00000000    0.01587302
/
