&CONTROL
                   calculation    =    'bands'
                        prefix    =    'pwscf'
                         title    =    'Graphene'
                  restart_mode    =    'from_scratch'
!                        nstep    =    1
!                       outdir    =    '.'
!                       wfcdir    =    '.'
                    pseudo_dir    =    '~/espresso-5.2.1/pseudo'
!                  lkpoint_dir    =    .true.
                     verbosity    =    'high'
                    wf_collect    =    .true.
!                      disk_io    =    'low'
!                       iprint    =    10
!                      tstress    =    .false.
!                      tprnfor    =    .false.
!                           dt    =    20.D0
!                  max_seconds    =    1.D+7
                 etot_conv_thr    =    1.0D-4
                 forc_conv_thr    =    3.889D-4
!                      tefield    =    .false.
!                     dipfield    =    .false.
!                     lelfield    =    .false.
!                    nberrycyc    =    1
!                        lorbm    =    .false.
!                       lberry    =    .false.
!                         gdir    =    3
!                       nppstr    =    10
!                      lfcpopt    =    .false.
/

&SYSTEM
                         ibrav    =    0
                           nat    =    2
                          ntyp    =    1
                          nbnd    =    20
!                   tot_charge    =    0.0
                       ecutwfc    =    60.0
!                      ecutrho    =    240.0
!                 nr1  = 40, nr2  = 40, nr3  = 200
!                 nr1s = 40, nr2s = 40, nr3s = 200
                         nspin    =    1
!                     noncolin    =    .false.
!                     lspinorb    =    .false.
!                        nosym    =    .true.
!                    nosym_evc    =    .false.
!                        noinv    =    .false.
!                     no_t_rev    =    .false.
!             force_symmorphic    =    .false.
!                  space_group    =    0
!                      uniqueb    =    .false.
!                origin_choice    =    1
!                 rhombohedral    =    .true.
!            tot_magnetization    =    -1
!    starting_magnetization(1)    =    1.0
!    starting_magnetization(2)    =    0.0
!          starting_spin_angle    =    .false.
!                    angle1(1)    =    90
!                    angle2(1)    =    0
!    constrained_magnetization    =    'none'
!       fixed_magnetization(1)    =    0.D0
!                       lambda    =    1.D0
!                       report    =    1
!                 use_all_frac    =    .false.
                   occupations    =    'smearing'
                      smearing    =    'fermi-dirac'
                       degauss    =    1.D-3
!         one_atom_occupations    =    .false.
!                      q2sigma    =    0.1
!                        qcutz    =    0.0
!                      ecfixed    =    0.0
!                    input_dft    =    'hse'
!
! Hybrid XC functional
!                     ecutfock    =    240.0
!                 exx_fraction    =    0.25
!          screening_parameter    =    0.106
!             exxdiv_treatment    =    'gygi-baldereschi'
!                     ecutvcut    =    0.0
!        x_gamma_extrapolation    =    .true.
!                  nqx1 = 4, nqx2 = 4, nqx3 = 1
!
! DFT+U
!                   lda_plus_u    =    .false.
!              lda_plus_u_kind    =    0
!                 Hubbard_U(1)    =    0.D0
!                Hubbard_J0(1)    =    0.D0
!             Hubbard_alpha(1)    =    0.D0
!              Hubbard_beta(1)    =    0.D0
!                 Hubbard_J(1)    =    0.D0
!            U_projection_type    =    'atomic'
!starting_ns_eigenvalue(2,1,2)    =    -1.d0
!
! Electric fields
!                         edir    =    3
!                      emaxpos    =    0.5D0
!                       eopreg    =    0.1D0
!                         eamp    =    0.001
!
!              assume_isolated    =    'none'
!                       esm_bc    =    'pbc'
!                        esm_w    =    0.d0
!                   esm_efield    =    0.d0
!                     esm_nfit    =    4
!                       fcp_mu    =    0.d0
!
! van der Waals correction (local)
!                     vdw_corr    =    'grimme-d2'
!                    london_s6    =    0.75
!                 london_c6(1)    =    0.d0
!                  london_rcut    =    200
!                         xdm1    =    0.6836
!                         xdm2    =    1.5045
/

&ELECTRONS
!                 adaptive_thr    =    .false.
!                conv_thr_init    =    1.D-5
!               conv_thr_multi    =    1.D-1
                      conv_thr    =    1.D-8
             scf_must_converge    =    .true.
              electron_maxstep    =    300
               diagonalization    =    'david'
              diago_david_ndim    =    4
!               diago_full_acc    =    .false.
                diago_thr_init    =    1.D-3
              diago_cg_maxiter    =    100
!                  mixing_mode    =    'plain'
!                  mixing_beta    =    0.7
!                  mixing_ndim    =    8
!              mixing_fixed_ns    =    0
!                          tqr    =    .false.
!                  startingpot    =    'atomic'
!                  startingwfc    =    'atomic+random'
!
! Electric field for (lelfield = .true.), 1 a.u. = 3.636D+11 V/m
!                       efield    =    0.D0
!               efield_cart(1)    =    0.D0
!               efield_cart(2)    =    0.D0
!               efield_cart(3)    =    0.D0
/

ATOMIC_SPECIES
  C   12.011    C.pbe-mt_fhi.UPF

CELL_PARAMETERS (angstrom)
   2.1390827473 -1.235000000   0.000000000
   2.1390827473  1.235000000   0.000000000
   0.000000000   0.000000000  20.000000000

ATOMIC_POSITIONS (crystal)
C        0.000000000   0.000000000   0.500000000
C        0.333333333   0.333333333   0.500000000

K_POINTS (crystal)
153
  0.50000000  0.00000000  0.00000000    0.00653595
  0.50333333  0.00666667  0.00000000    0.00653595
  0.50666667  0.01333333  0.00000000    0.00653595
  0.51000000  0.02000000  0.00000000    0.00653595
  0.51333333  0.02666667  0.00000000    0.00653595
  0.51666667  0.03333333  0.00000000    0.00653595
  0.52000000  0.04000000  0.00000000    0.00653595
  0.52333333  0.04666667  0.00000000    0.00653595
  0.52666667  0.05333333  0.00000000    0.00653595
  0.53000000  0.06000000  0.00000000    0.00653595
  0.53333333  0.06666667  0.00000000    0.00653595
  0.53666667  0.07333333  0.00000000    0.00653595
  0.54000000  0.08000000  0.00000000    0.00653595
  0.54333333  0.08666667  0.00000000    0.00653595
  0.54666667  0.09333333  0.00000000    0.00653595
  0.55000000  0.10000000  0.00000000    0.00653595
  0.55333333  0.10666667  0.00000000    0.00653595
  0.55666667  0.11333333  0.00000000    0.00653595
  0.56000000  0.12000000  0.00000000    0.00653595
  0.56333333  0.12666667  0.00000000    0.00653595
  0.56666667  0.13333333  0.00000000    0.00653595
  0.57000000  0.14000000  0.00000000    0.00653595
  0.57333333  0.14666667  0.00000000    0.00653595
  0.57666667  0.15333333  0.00000000    0.00653595
  0.58000000  0.16000000  0.00000000    0.00653595
  0.58333333  0.16666667  0.00000000    0.00653595
  0.58666667  0.17333333  0.00000000    0.00653595
  0.59000000  0.18000000  0.00000000    0.00653595
  0.59333333  0.18666667  0.00000000    0.00653595
  0.59666667  0.19333333  0.00000000    0.00653595
  0.60000000  0.20000000  0.00000000    0.00653595
  0.60333333  0.20666667  0.00000000    0.00653595
  0.60666667  0.21333333  0.00000000    0.00653595
  0.61000000  0.22000000  0.00000000    0.00653595
  0.61333333  0.22666667  0.00000000    0.00653595
  0.61666667  0.23333333  0.00000000    0.00653595
  0.62000000  0.24000000  0.00000000    0.00653595
  0.62333333  0.24666667  0.00000000    0.00653595
  0.62666667  0.25333333  0.00000000    0.00653595
  0.63000000  0.26000000  0.00000000    0.00653595
  0.63333333  0.26666667  0.00000000    0.00653595
  0.63666667  0.27333333  0.00000000    0.00653595
  0.64000000  0.28000000  0.00000000    0.00653595
  0.64333333  0.28666667  0.00000000    0.00653595
  0.64666667  0.29333333  0.00000000    0.00653595
  0.65000000  0.30000000  0.00000000    0.00653595
  0.65333333  0.30666667  0.00000000    0.00653595
  0.65666667  0.31333333  0.00000000    0.00653595
  0.66000000  0.32000000  0.00000000    0.00653595
  0.66333333  0.32666667  0.00000000    0.00653595
  0.66666667  0.33333333  0.00000000    0.00653595
  0.66666667  0.33333333  0.00000000    0.00653595
  0.65333333  0.32666667  0.00000000    0.00653595
  0.64000000  0.32000000  0.00000000    0.00653595
  0.62666667  0.31333333  0.00000000    0.00653595
  0.61333333  0.30666667  0.00000000    0.00653595
  0.60000000  0.30000000  0.00000000    0.00653595
  0.58666667  0.29333333  0.00000000    0.00653595
  0.57333333  0.28666667  0.00000000    0.00653595
  0.56000000  0.28000000  0.00000000    0.00653595
  0.54666667  0.27333333  0.00000000    0.00653595
  0.53333333  0.26666667  0.00000000    0.00653595
  0.52000000  0.26000000  0.00000000    0.00653595
  0.50666667  0.25333333  0.00000000    0.00653595
  0.49333333  0.24666667  0.00000000    0.00653595
  0.48000000  0.24000000  0.00000000    0.00653595
  0.46666667  0.23333333  0.00000000    0.00653595
  0.45333333  0.22666667  0.00000000    0.00653595
  0.44000000  0.22000000  0.00000000    0.00653595
  0.42666667  0.21333333  0.00000000    0.00653595
  0.41333333  0.20666667  0.00000000    0.00653595
  0.40000000  0.20000000  0.00000000    0.00653595
  0.38666667  0.19333333  0.00000000    0.00653595
  0.37333333  0.18666667  0.00000000    0.00653595
  0.36000000  0.18000000  0.00000000    0.00653595
  0.34666667  0.17333333  0.00000000    0.00653595
  0.33333333  0.16666667  0.00000000    0.00653595
  0.32000000  0.16000000  0.00000000    0.00653595
  0.30666667  0.15333333  0.00000000    0.00653595
  0.29333333  0.14666667  0.00000000    0.00653595
  0.28000000  0.14000000  0.00000000    0.00653595
  0.26666667  0.13333333  0.00000000    0.00653595
  0.25333333  0.12666667  0.00000000    0.00653595
  0.24000000  0.12000000  0.00000000    0.00653595
  0.22666667  0.11333333  0.00000000    0.00653595
  0.21333333  0.10666667  0.00000000    0.00653595
  0.20000000  0.10000000  0.00000000    0.00653595
  0.18666667  0.09333333  0.00000000    0.00653595
  0.17333333  0.08666667  0.00000000    0.00653595
  0.16000000  0.08000000  0.00000000    0.00653595
  0.14666667  0.07333333  0.00000000    0.00653595
  0.13333333  0.06666667  0.00000000    0.00653595
  0.12000000  0.06000000  0.00000000    0.00653595
  0.10666667  0.05333333  0.00000000    0.00653595
  0.09333333  0.04666667  0.00000000    0.00653595
  0.08000000  0.04000000  0.00000000    0.00653595
  0.06666667  0.03333333  0.00000000    0.00653595
  0.05333333  0.02666667  0.00000000    0.00653595
  0.04000000  0.02000000  0.00000000    0.00653595
  0.02666667  0.01333333  0.00000000    0.00653595
  0.01333333  0.00666667  0.00000000    0.00653595
  0.00000000  0.00000000  0.00000000    0.00653595
  0.00000000  0.00000000  0.00000000    0.00653595
  0.01000000  0.00000000  0.00000000    0.00653595
  0.02000000  0.00000000  0.00000000    0.00653595
  0.03000000  0.00000000  0.00000000    0.00653595
  0.04000000  0.00000000  0.00000000    0.00653595
  0.05000000  0.00000000  0.00000000    0.00653595
  0.06000000  0.00000000  0.00000000    0.00653595
  0.07000000  0.00000000  0.00000000    0.00653595
  0.08000000  0.00000000  0.00000000    0.00653595
  0.09000000  0.00000000  0.00000000    0.00653595
  0.10000000  0.00000000  0.00000000    0.00653595
  0.11000000  0.00000000  0.00000000    0.00653595
  0.12000000  0.00000000  0.00000000    0.00653595
  0.13000000  0.00000000  0.00000000    0.00653595
  0.14000000  0.00000000  0.00000000    0.00653595
  0.15000000  0.00000000  0.00000000    0.00653595
  0.16000000  0.00000000  0.00000000    0.00653595
  0.17000000  0.00000000  0.00000000    0.00653595
  0.18000000  0.00000000  0.00000000    0.00653595
  0.19000000  0.00000000  0.00000000    0.00653595
  0.20000000  0.00000000  0.00000000    0.00653595
  0.21000000  0.00000000  0.00000000    0.00653595
  0.22000000  0.00000000  0.00000000    0.00653595
  0.23000000  0.00000000  0.00000000    0.00653595
  0.24000000  0.00000000  0.00000000    0.00653595
  0.25000000  0.00000000  0.00000000    0.00653595
  0.26000000  0.00000000  0.00000000    0.00653595
  0.27000000  0.00000000  0.00000000    0.00653595
  0.28000000  0.00000000  0.00000000    0.00653595
  0.29000000  0.00000000  0.00000000    0.00653595
  0.30000000  0.00000000  0.00000000    0.00653595
  0.31000000  0.00000000  0.00000000    0.00653595
  0.32000000  0.00000000  0.00000000    0.00653595
  0.33000000  0.00000000  0.00000000    0.00653595
  0.34000000  0.00000000  0.00000000    0.00653595
  0.35000000  0.00000000  0.00000000    0.00653595
  0.36000000  0.00000000  0.00000000    0.00653595
  0.37000000  0.00000000  0.00000000    0.00653595
  0.38000000  0.00000000  0.00000000    0.00653595
  0.39000000  0.00000000  0.00000000    0.00653595
  0.40000000  0.00000000  0.00000000    0.00653595
  0.41000000  0.00000000  0.00000000    0.00653595
  0.42000000  0.00000000  0.00000000    0.00653595
  0.43000000  0.00000000  0.00000000    0.00653595
  0.44000000  0.00000000  0.00000000    0.00653595
  0.45000000  0.00000000  0.00000000    0.00653595
  0.46000000  0.00000000  0.00000000    0.00653595
  0.47000000  0.00000000  0.00000000    0.00653595
  0.48000000  0.00000000  0.00000000    0.00653595
  0.49000000  0.00000000  0.00000000    0.00653595
  0.50000000  0.00000000  0.00000000    0.00653595
