&INPUTPP
         prefix    =    'pwscf'
         outdir    =    '.'
       seedname    =    'graphene.sa'
 spin_component    =    'none'
      write_mmn    =    .true.
      write_amn    =    .true.
      write_unk    =    .false.
       wan_mode    =    'standalone'
/
