! MAIN
            num_wann    =    4
            num_iter    =    20
    num_print_cycles    =    10
!       wannier_plot    =    true
!            restart    =    plot
!  wannier_plot_list    =    1 3

! FERMI SURFACE
!      fermi_energy     =    5.00
! fermi_surface_plot    =    true
!  fermi_surface_num_points    =    50

! DISENTANGLED MLWF
!   dis_win_max    =    17.0d0
!  dis_froz_max    =    6.4
!  dis_num_iter    =    120
! dis_mix_ratio    =    1.0

! SYSTEM
Begin Unit_Cell_Cart
Ang
-2.6988 0.0000 2.6988
 0.0000 2.6988 2.6988
-2.6988 2.6988 0.0000
End Unit_Cell_Cart

Begin Atoms_Frac
Si  -0.25   0.75  -0.25
Si   0.00   0.00   0.00 
End Atoms_Frac
    

Begin projections
Si : sp3
End projections

! KPOINTS

MP_grid   =   4  4  4

Begin Kpoint_path
L 0.50000  0.50000 0.5000 G 0.00000  0.00000 0.0000
G 0.00000  0.00000 0.0000 X 0.50000  0.00000 0.5000
X 0.50000 -0.50000 0.0000 K 0.37500 -0.37500 0.0000
K 0.37500 -0.37500 0.0000 G 0.00000  0.00000 0.0000
End Kpoint_path


Begin Kpoints
0.0000  0.0000   0.0000   
0.0000  0.2500   0.0000   
0.0000  0.5000   0.0000   
0.0000  0.7500   0.0000   
0.2500  0.0000   0.0000   
0.2500  0.2500   0.0000   
0.2500  0.5000   0.0000   
0.2500  0.7500   0.0000   
0.5000  0.0000   0.0000   
0.5000  0.2500   0.0000   
0.5000  0.5000   0.0000   
0.5000  0.7500   0.0000   
0.7500  0.0000   0.0000   
0.7500  0.2500   0.0000   
0.7500  0.5000   0.0000   
0.7500  0.7500   0.0000   
0.0000  0.0000   0.2500   
0.0000  0.2500   0.2500   
0.0000  0.5000   0.2500   
0.0000  0.7500   0.2500   
0.2500  0.0000   0.2500   
0.2500  0.2500   0.2500   
0.2500  0.5000   0.2500   
0.2500  0.7500   0.2500   
0.5000  0.0000   0.2500   
0.5000  0.2500   0.2500   
0.5000  0.5000   0.2500   
0.5000  0.7500   0.2500   
0.7500  0.0000   0.2500   
0.7500  0.2500   0.2500   
0.7500  0.5000   0.2500   
0.7500  0.7500   0.2500   
0.0000  0.0000   0.5000   
0.0000  0.2500   0.5000   
0.0000  0.5000   0.5000   
0.0000  0.7500   0.5000   
0.2500  0.0000   0.5000   
0.2500  0.2500   0.5000   
0.2500  0.5000   0.5000   
0.2500  0.7500   0.5000   
0.5000  0.0000   0.5000   
0.5000  0.2500   0.5000   
0.5000  0.5000   0.5000   
0.5000  0.7500   0.5000   
0.7500  0.0000   0.5000   
0.7500  0.2500   0.5000   
0.7500  0.5000   0.5000   
0.7500  0.7500   0.5000   
0.0000  0.0000   0.7500   
0.0000  0.2500   0.7500   
0.0000  0.5000   0.7500   
0.0000  0.7500   0.7500   
0.2500  0.0000   0.7500   
0.2500  0.2500   0.7500   
0.2500  0.5000   0.7500   
0.2500  0.7500   0.7500   
0.5000  0.0000   0.7500   
0.5000  0.2500   0.7500   
0.5000  0.5000   0.7500   
0.5000  0.7500   0.7500   
0.7500  0.0000   0.7500   
0.7500  0.2500   0.7500   
0.7500  0.5000   0.7500   
0.7500  0.7500   0.7500   
End Kpoints



